\ENCODING=ISO-8859-1
\Problem name: ilog.cplex

Minimize
 obj1: 92534 x1 + 99012 x2 + 92813 x3 + 109319 x4 + 104122 x5 + 99880 x6
       + 90601 x7 + 91266 x8 + 106105 x9 + 100013 x10 + 98307 x11 + 100529 x12
       + 108983 x13 + 109698 x14 + 100457 x15 + 107344 x16 + 106987 x17
       + 92542 x18 + 102601 x19 + 100003 x20 + 96373 x21 + 90007 x22
       + 95603 x23 + 99521 x24 + 105142 x25 + 99435 x26 + 96081 x27
       + 103940 x28 + 93204 x29 + 91636 x30 + 92442 x31 + 105368 x32
       + 106697 x33 + 98366 x34 + 100922 x35 + 109950 x36 + 100535 x37
       + 94849 x38 + 106744 x39 + 98579 x40 + 99198 x41 + 108032 x42
       + 91718 x43 + 94522 x44 + 107350 x45 + 97327 x46 + 91560 x47 + 93006 x48
       + 109102 x49 + 101380 x50 + 103671 x51 + 97398 x52 + 107548 x53
       + 101723 x54 + 99303 x55 + 96766 x56 + 94679 x57 + 102201 x58
       + 102793 x59 + 90427 x60 + 96493 x61 + 102573 x62 + 106429 x63
       + 97578 x64 + 93493 x65 + 103218 x66 + 109787 x67 + 92224 x68
       + 96821 x69 + 101176 x70 + 94458 x71 + 96583 x72 + 105063 x73
       + 97848 x74 + 97348 x75 + 90033 x76 + 105164 x77 + 109063 x78
       + 105825 x79 + 101391 x80 + 99977 x81 + 101828 x82 + 98047 x83
       + 90561 x84 + 96885 x85 + 101655 x86 + 92562 x87 + 109400 x88
       + 92010 x89 + 99782 x90 + 96085 x91 + 106534 x92 + 100920 x93
       + 104339 x94 + 92571 x95 + 105879 x96 + 103829 x97 + 99826 x98
       + 101568 x99 + 109255 x100 + 90940 x101 + 105228 x102 + 109335 x103
       + 109769 x104 + 91886 x105 + 92678 x106 + 102317 x107 + 94509 x108
       + 92140 x109 + 105786 x110 + 109290 x111 + 102662 x112 + 98854 x113
       + 99586 x114 + 105892 x115 + 108235 x116 + 98703 x117 + 92497 x118
       + 93198 x119 + 95419 x120 + 108947 x121 + 102056 x122 + 97799 x123
       + 102848 x124 + 91879 x125 + 104231 x126 + 93257 x127 + 109651 x128
       + 108850 x129 + 94968 x130 + 103482 x131 + 109395 x132 + 94113 x133
       + 102946 x134 + 99249 x135 + 96288 x136 + 100593 x137 + 101574 x138
       + 104744 x139 + 94693 x140 + 98675 x141 + 90011 x142 + 96679 x143
       + 105393 x144 + 101629 x145 + 108412 x146 + 98124 x147 + 101929 x148
       + 98301 x149 + 99690 x150 + 106701 x151 + 108721 x152 + 93124 x153
       + 96547 x154 + 101500 x155 + 96890 x156 + 108517 x157 + 99569 x158
       + 103389 x159 + 108601 x160 + 95369 x161 + 99845 x162 + 99366 x163
       + 106203 x164 + 103599 x165 + 107883 x166 + 103168 x167 + 98582 x168
       + 106654 x169 + 99509 x170 + 91582 x171 + 103856 x172 + 91344 x173
       + 99007 x174 + 108692 x175 + 104923 x176 + 97549 x177 + 109913 x178
       + 108813 x179 + 102353 x180 + 107734 x181 + 97557 x182 + 95853 x183
       + 102839 x184 + 109805 x185 + 104537 x186 + 103517 x187 + 93822 x188
       + 105604 x189 + 96075 x190 + 106260 x191 + 104970 x192 + 99302 x193
       + 93529 x194 + 96470 x195 + 96229 x196 + 92552 x197 + 104633 x198
       + 94471 x199 + 90731 x200 + 101893 x201 + 104728 x202 + 90684 x203
       + 100173 x204 + 101115 x205 + 92352 x206 + 100138 x207 + 94059 x208
       + 99495 x209 + 105170 x210 + 99450 x211 + 102782 x212 + 90408 x213
       + 91585 x214 + 92837 x215 + 99184 x216 + 99065 x217 + 98420 x218
       + 90760 x219 + 103612 x220 + 102992 x221 + 95682 x222 + 102475 x223
       + 103413 x224 + 94359 x225 + 95702 x226 + 102077 x227 + 109396 x228
       + 99358 x229 + 95841 x230 + 106553 x231 + 109021 x232 + 106609 x233
       + 101458 x234 + 103874 x235 + 98871 x236 + 103878 x237 + 108995 x238
       + 109388 x239 + 107444 x240 + 93388 x241 + 101033 x242 + 93691 x243
       + 93342 x244 + 103979 x245 + 96406 x246 + 97305 x247 + 94204 x248
       + 104011 x249 + 105760 x250 + 95905 x251 + 107161 x252 + 96201 x253
       + 106306 x254 + 98592 x255 + 90125 x256 + 90797 x257 + 96734 x258
       + 91760 x259 + 101494 x260 + 104293 x261 + 102893 x262 + 104163 x263
       + 91104 x264 + 94976 x265 + 106421 x266 + 99090 x267 + 106663 x268
       + 96493 x269 + 100021 x270 + 104933 x271 + 103615 x272 + 109717 x273
       + 106729 x274 + 94805 x275 + 92773 x276 + 97866 x277 + 104721 x278
       + 100915 x279 + 107176 x280 + 100207 x281 + 94084 x282 + 100012 x283
       + 97231 x284 + 95597 x285 + 107489 x286 + 92518 x287 + 91543 x288
       + 108712 x289 + 102756 x290 + 99843 x291 + 109763 x292 + 99015 x293
       + 102116 x294 + 101895 x295 + 103306 x296 + 105356 x297 + 100269 x298
       + 109950 x299 + 109996 x300 + 99479 x301 + 90306 x302 + 103722 x303
       + 106605 x304 + 97683 x305 + 104792 x306 + 99952 x307 + 90488 x308
       + 90641 x309 + 98059 x310 + 100844 x311 + 102375 x312 + 100669 x313
       + 101978 x314 + 100808 x315 + 99825 x316 + 101226 x317 + 99556 x318
       + 104615 x319 + 94317 x320 + 90642 x321 + 98891 x322 + 106517 x323
       + 101556 x324 + 99526 x325 + 102798 x326 + 95285 x327 + 96643 x328
       + 101780 x329 + 95604 x330 + 101697 x331 + 90681 x332 + 94989 x333
       + 97697 x334 + 108610 x335 + 94815 x336 + 92354 x337 + 93124 x338
       + 97989 x339 + 102696 x340 + 105398 x341 + 95838 x342 + 94139 x343
       + 103021 x344 + 94364 x345 + 106200 x346 + 97864 x347 + 90058 x348
       + 101490 x349 + 100872 x350 + 92384 x351 + 91981 x352 + 101305 x353
       + 96480 x354 + 98608 x355 + 104322 x356 + 101623 x357 + 90242 x358
       + 104687 x359 + 99041 x360 + 98429 x361 + 94034 x362 + 93932 x363
       + 94633 x364 + 97510 x365 + 90373 x366 + 101762 x367 + 106561 x368
       + 108576 x369 + 109296 x370 + 100963 x371 + 104813 x372 + 107181 x373
       + 106942 x374 + 96965 x375 + 102104 x376 + 100136 x377 + 90534 x378
       + 109320 x379 + 97789 x380 + 93007 x381 + 90902 x382 + 99803 x383
       + 95561 x384 + 107070 x385 + 93986 x386 + 100020 x387 + 95071 x388
       + 103872 x389 + 109096 x390 + 100338 x391 + 106769 x392 + 99295 x393
       + 97484 x394 + 101033 x395 + 92944 x396 + 108412 x397 + 91223 x398
       + 91255 x399 + 102134 x400 + 97452 x401 + 99438 x402 + 91743 x403
       + 98966 x404 + 109841 x405 + 106596 x406 + 93179 x407 + 96965 x408
       + 99530 x409 + 95890 x410 + 103661 x411 + 97976 x412 + 106745 x413
       + 99641 x414 + 105963 x415 + 108606 x416 + 108804 x417 + 108231 x418
       + 98100 x419 + 101426 x420 + 96682 x421 + 97530 x422 + 99149 x423
       + 106499 x424 + 98877 x425 + 105195 x426 + 101860 x427 + 99911 x428
       + 91799 x429 + 105863 x430 + 99385 x431 + 104109 x432 + 95482 x433
       + 105298 x434 + 93921 x435 + 101318 x436 + 99016 x437 + 100439 x438
       + 92886 x439 + 92748 x440 + 104284 x441 + 102519 x442 + 102872 x443
       + 99751 x444 + 107424 x445 + 102079 x446 + 92919 x447 + 93316 x448
       + 107157 x449 + 109330 x450 + 92659 x451 + 94042 x452 + 102159 x453
       + 97073 x454 + 106738 x455 + 93786 x456 + 103218 x457 + 102784 x458
       + 103295 x459 + 104910 x460 + 100176 x461 + 91489 x462 + 91368 x463
       + 103360 x464 + 108544 x465 + 101701 x466 + 99745 x467 + 97792 x468
       + 96107 x469 + 92963 x470 + 108099 x471 + 108516 x472 + 96014 x473
       + 105429 x474 + 100164 x475 + 97267 x476 + 109542 x477 + 109430 x478
       + 108252 x479 + 91613 x480 + 96286 x481 + 90055 x482 + 99231 x483
       + 107812 x484 + 97800 x485 + 108472 x486 + 91655 x487 + 102177 x488
       + 108420 x489 + 101300 x490 + 92074 x491 + 93492 x492 + 100896 x493
       + 95153 x494 + 100611 x495 + 107958 x496 + 96307 x497 + 90510 x498
       + 105284 x499 + 107815 x500 + 103964 x501 + 99194 x502 + 97152 x503
       + 109391 x504 + 94524 x505 + 94729 x506 + 104794 x507 + 105788 x508
       + 95280 x509 + 107561 x510 + 96880 x511 + 107583 x512 + 90078 x513
       + 100096 x514 + 105351 x515 + 100745 x516 + 105385 x517 + 90136 x518
       + 101138 x519 + 107376 x520 + 108709 x521 + 95520 x522 + 109356 x523
       + 101943 x524 + 95956 x525 + 107650 x526 + 101546 x527 + 103350 x528
       + 100227 x529 + 107067 x530 + 108834 x531 + 91485 x532 + 96153 x533
       + 90355 x534 + 101745 x535 + 105813 x536 + 101073 x537 + 104388 x538
       + 99940 x539 + 93145 x540 + 101856 x541 + 97312 x542 + 95523 x543
       + 104498 x544 + 90678 x545 + 100812 x546 + 102966 x547 + 107715 x548
       + 91561 x549 + 96258 x550 + 91392 x551 + 97990 x552 + 98197 x553
       + 102360 x554 + 91233 x555 + 91536 x556 + 104439 x557 + 99940 x558
       + 106329 x559 + 108479 x560 + 90181 x561 + 94183 x562 + 105297 x563
       + 96441 x564 + 106158 x565 + 98604 x566 + 105952 x567 + 95891 x568
       + 103707 x569 + 100047 x570 + 107567 x571 + 91327 x572 + 90672 x573
       + 107459 x574 + 98735 x575 + 106131 x576 + 90479 x577 + 96262 x578
       + 92247 x579 + 108322 x580 + 97790 x581 + 94875 x582 + 92575 x583
       + 99474 x584 + 101225 x585 + 100244 x586 + 106479 x587 + 99670 x588
       + 101301 x589 + 95221 x590 + 102705 x591 + 97689 x592 + 90053 x593
       + 92192 x594 + 92856 x595 + 107455 x596 + 97704 x597 + 104569 x598
       + 102279 x599 + 46316 x600 + 43785 x601 + 38310 x602 + 39768 x603
       + 42399 x604 + 42741 x605 + 36912 x606 + 42430 x607 + 37737 x608
       + 42976 x609 + 36009 x610 + 39259 x611 + 36046 x612 + 37896 x613
       + 37662 x614 + 40699 x615 + 38366 x616 + 41545 x617 + 41630 x618
       + 37335 x619 + 43306 x620 + 43666 x621 + 39106 x622 + 36325 x623
       + 38933 x624 + 37009 x625 + 39117 x626 + 36907 x627 + 39241 x628
       + 37993 x629 + 43240 x630 + 38850 x631 + 39586 x632 + 43542 x633
       + 36436 x634 + 40787 x635 + 43986 x636 + 37355 x637 + 36689 x638
       + 41211 x639 + 38428 x640 + 38063 x641 + 43724 x642 + 39450 x643
       + 36341 x644 + 41680 x645 + 43544 x646 + 43290 x647 + 41150 x648
       + 39440 x649 + 36568 x650 + 43960 x651 + 36333 x652 + 41561 x653
       + 43106 x654 + 42038 x655 + 37661 x656 + 39674 x657 + 40500 x658
       + 43376 x659 + 43323 x660
Subject To
 c1:   x3 - x4 - x8 - x10 + x20 + x30 + x33 - x37 + x44  = 0
 c2:   x63 - x64 - x68 - x70 + x80 + x90 + x93 - x97 + x104  = 0
 c3:   x123 - x124 - x128 - x130 + x140 + x150 + x153 - x157 + x164  = -1
 c4:   x183 - x184 - x188 - x190 + x200 + x210 + x213 - x217 + x224  = 0
 c5:   x243 - x244 - x248 - x250 + x260 + x270 + x273 - x277 + x284  = 0
 c6:   x303 - x304 - x308 - x310 + x320 + x330 + x333 - x337 + x344  = 1
 c7:   x363 - x364 - x368 - x370 + x380 + x390 + x393 - x397 + x404  = 0
 c8:   x423 - x424 - x428 - x430 + x440 + x450 + x453 - x457 + x464  = 0
 c9:   x483 - x484 - x488 - x490 + x500 + x510 + x513 - x517 + x524  = 0
 c10:  x543 - x544 - x548 - x550 + x560 + x570 + x573 - x577 + x584  = 0
 c11:  - x9 + x16 + x31 - x33 + x37 + x43 - x47 + x48 - x49 - x51 - x54 + x55
        = 0
 c12:  - x69 + x76 + x91 - x93 + x97 + x103 - x107 + x108 - x109 - x111 - x114
       + x115  = 0
 c13:  - x129 + x136 + x151 - x153 + x157 + x163 - x167 + x168 - x169 - x171
       - x174 + x175  = 0
 c14:  - x189 + x196 + x211 - x213 + x217 + x223 - x227 + x228 - x229 - x231
       - x234 + x235  = -1
 c15:  - x249 + x256 + x271 - x273 + x277 + x283 - x287 + x288 - x289 - x291
       - x294 + x295  = 0
 c16:  - x309 + x316 + x331 - x333 + x337 + x343 - x347 + x348 - x349 - x351
       - x354 + x355  = 0
 c17:  - x369 + x376 + x391 - x393 + x397 + x403 - x407 + x408 - x409 - x411
       - x414 + x415  = -1
 c18:  - x429 + x436 + x451 - x453 + x457 + x463 - x467 + x468 - x469 - x471
       - x474 + x475  = 0
 c19:  - x489 + x496 + x511 - x513 + x517 + x523 - x527 + x528 - x529 - x531
       - x534 + x535  = 0
 c20:  - x549 + x556 + x571 - x573 + x577 + x583 - x587 + x588 - x589 - x591
       - x594 + x595  = 0
 c21:  x7 + x8 - x11 + x13 - x17 + x27 - x30 - x31 + x32 + x34 - x36 + x38
       - x41 + x51  = 0
 c22:  x67 + x68 - x71 + x73 - x77 + x87 - x90 - x91 + x92 + x94 - x96 + x98
       - x101 + x111  = 0
 c23:  x127 + x128 - x131 + x133 - x137 + x147 - x150 - x151 + x152 + x154
       - x156 + x158 - x161 + x171  = 1
 c24:  x187 + x188 - x191 + x193 - x197 + x207 - x210 - x211 + x212 + x214
       - x216 + x218 - x221 + x231  = 1
 c25:  x247 + x248 - x251 + x253 - x257 + x267 - x270 - x271 + x272 + x274
       - x276 + x278 - x281 + x291  = 0
 c26:  x307 + x308 - x311 + x313 - x317 + x327 - x330 - x331 + x332 + x334
       - x336 + x338 - x341 + x351  = 0
 c27:  x367 + x368 - x371 + x373 - x377 + x387 - x390 - x391 + x392 + x394
       - x396 + x398 - x401 + x411  = 0
 c28:  x427 + x428 - x431 + x433 - x437 + x447 - x450 - x451 + x452 + x454
       - x456 + x458 - x461 + x471  = 0
 c29:  x487 + x488 - x491 + x493 - x497 + x507 - x510 - x511 + x512 + x514
       - x516 + x518 - x521 + x531  = 0
 c30:  x547 + x548 - x551 + x553 - x557 + x567 - x570 - x571 + x572 + x574
       - x576 + x578 - x581 + x591  = 0
 c31:  x12 - x24 + x36 + x39 - x42 - x43 - x45 + x49 - x58 + x60  = 0
 c32:  x72 - x84 + x96 + x99 - x102 - x103 - x105 + x109 - x118 + x120  = 0
 c33:  x132 - x144 + x156 + x159 - x162 - x163 - x165 + x169 - x178 + x180  = 0
 c34:  x192 - x204 + x216 + x219 - x222 - x223 - x225 + x229 - x238 + x240  = 0
 c35:  x252 - x264 + x276 + x279 - x282 - x283 - x285 + x289 - x298 + x300  = 0
 c36:  x312 - x324 + x336 + x339 - x342 - x343 - x345 + x349 - x358 + x360  = 0
 c37:  x372 - x384 + x396 + x399 - x402 - x403 - x405 + x409 - x418 + x420  = 0
 c38:  x432 - x444 + x456 + x459 - x462 - x463 - x465 + x469 - x478 + x480  = 0
 c39:  x492 - x504 + x516 + x519 - x522 - x523 - x525 + x529 - x538 + x540  = 0
 c40:  x552 - x564 + x576 + x579 - x582 - x583 - x585 + x589 - x598 + x600  = 0
 c41:  x2 + x14 + x25 - x27 - x28 + x35 - x53 - x57  = 0
 c42:  x62 + x74 + x85 - x87 - x88 + x95 - x113 - x117  = 0
 c43:  x122 + x134 + x145 - x147 - x148 + x155 - x173 - x177  = 0
 c44:  x182 + x194 + x205 - x207 - x208 + x215 - x233 - x237  = 0
 c45:  x242 + x254 + x265 - x267 - x268 + x275 - x293 - x297  = 0
 c46:  x302 + x314 + x325 - x327 - x328 + x335 - x353 - x357  = -1
 c47:  x362 + x374 + x385 - x387 - x388 + x395 - x413 - x417  = 0
 c48:  x422 + x434 + x445 - x447 - x448 + x455 - x473 - x477  = 1
 c49:  x482 + x494 + x505 - x507 - x508 + x515 - x533 - x537  = -1
 c50:  x542 + x554 + x565 - x567 - x568 + x575 - x593 - x597  = 0
 c51:  x4 - x5 - x15 - x18 + x24 - x25 + x26 - x29 - x32 + x41 - x44 + x47
       - x48 + x50 + x53 + x56 - x60  = -1
 c52:  x64 - x65 - x75 - x78 + x84 - x85 + x86 - x89 - x92 + x101 - x104 + x107
       - x108 + x110 + x113 + x116 - x120  = 1
 c53:  x124 - x125 - x135 - x138 + x144 - x145 + x146 - x149 - x152 + x161
       - x164 + x167 - x168 + x170 + x173 + x176 - x180  = 0
 c54:  x184 - x185 - x195 - x198 + x204 - x205 + x206 - x209 - x212 + x221
       - x224 + x227 - x228 + x230 + x233 + x236 - x240  = 0
 c55:  x244 - x245 - x255 - x258 + x264 - x265 + x266 - x269 - x272 + x281
       - x284 + x287 - x288 + x290 + x293 + x296 - x300  = 0
 c56:  x304 - x305 - x315 - x318 + x324 - x325 + x326 - x329 - x332 + x341
       - x344 + x347 - x348 + x350 + x353 + x356 - x360  = 0
 c57:  x364 - x365 - x375 - x378 + x384 - x385 + x386 - x389 - x392 + x401
       - x404 + x407 - x408 + x410 + x413 + x416 - x420  = 0
 c58:  x424 - x425 - x435 - x438 + x444 - x445 + x446 - x449 - x452 + x461
       - x464 + x467 - x468 + x470 + x473 + x476 - x480  = 0
 c59:  x484 - x485 - x495 - x498 + x504 - x505 + x506 - x509 - x512 + x521
       - x524 + x527 - x528 + x530 + x533 + x536 - x540  = 0
 c60:  x544 - x545 - x555 - x558 + x564 - x565 + x566 - x569 - x572 + x581
       - x584 + x587 - x588 + x590 + x593 + x596 - x600  = 1
 c61:  x1 - x2 - x3 - x6 + x15 + x17 - x21 - x23 + x28 - x34 - x39 + x42 + x52
        = 1
 c62:  x61 - x62 - x63 - x66 + x75 + x77 - x81 - x83 + x88 - x94 - x99 + x102
       + x112  = 0
 c63:  x121 - x122 - x123 - x126 + x135 + x137 - x141 - x143 + x148 - x154
       - x159 + x162 + x172  = 0
 c64:  x181 - x182 - x183 - x186 + x195 + x197 - x201 - x203 + x208 - x214
       - x219 + x222 + x232  = 0
 c65:  x241 - x242 - x243 - x246 + x255 + x257 - x261 - x263 + x268 - x274
       - x279 + x282 + x292  = 0
 c66:  x301 - x302 - x303 - x306 + x315 + x317 - x321 - x323 + x328 - x334
       - x339 + x342 + x352  = 0
 c67:  x361 - x362 - x363 - x366 + x375 + x377 - x381 - x383 + x388 - x394
       - x399 + x402 + x412  = 0
 c68:  x421 - x422 - x423 - x426 + x435 + x437 - x441 - x443 + x448 - x454
       - x459 + x462 + x472  = 0
 c69:  x481 - x482 - x483 - x486 + x495 + x497 - x501 - x503 + x508 - x514
       - x519 + x522 + x532  = 0
 c70:  x541 - x542 - x543 - x546 + x555 + x557 - x561 - x563 + x568 - x574
       - x579 + x582 + x592  = 0
 c71:  - x1 + x5 + x10 - x12 - x14 - x16 - x20 - x22 + x23 - x26 - x38 + x40
       - x46 + x54 + x57 + x59  = 0
 c72:  - x61 + x65 + x70 - x72 - x74 - x76 - x80 - x82 + x83 - x86 - x98 + x100
       - x106 + x114 + x117 + x119  = -1
 c73:  - x121 + x125 + x130 - x132 - x134 - x136 - x140 - x142 + x143 - x146
       - x158 + x160 - x166 + x174 + x177 + x179  = 0
 c74:  - x181 + x185 + x190 - x192 - x194 - x196 - x200 - x202 + x203 - x206
       - x218 + x220 - x226 + x234 + x237 + x239  = 0
 c75:  - x241 + x245 + x250 - x252 - x254 - x256 - x260 - x262 + x263 - x266
       - x278 + x280 - x286 + x294 + x297 + x299  = 0
 c76:  - x301 + x305 + x310 - x312 - x314 - x316 - x320 - x322 + x323 - x326
       - x338 + x340 - x346 + x354 + x357 + x359  = 0
 c77:  - x361 + x365 + x370 - x372 - x374 - x376 - x380 - x382 + x383 - x386
       - x398 + x400 - x406 + x414 + x417 + x419  = 0
 c78:  - x421 + x425 + x430 - x432 - x434 - x436 - x440 - x442 + x443 - x446
       - x458 + x460 - x466 + x474 + x477 + x479  = 0
 c79:  - x481 + x485 + x490 - x492 - x494 - x496 - x500 - x502 + x503 - x506
       - x518 + x520 - x526 + x534 + x537 + x539  = 0
 c80:  - x541 + x545 + x550 - x552 - x554 - x556 - x560 - x562 + x563 - x566
       - x578 + x580 - x586 + x594 + x597 + x599  = 0
 c81:  x6 + x9 - x13 + x18 + x19 - x35 + x45 + x46 - x50 - x59  = 0
 c82:  x66 + x69 - x73 + x78 + x79 - x95 + x105 + x106 - x110 - x119  = 0
 c83:  x126 + x129 - x133 + x138 + x139 - x155 + x165 + x166 - x170 - x179  = 0
 c84:  x186 + x189 - x193 + x198 + x199 - x215 + x225 + x226 - x230 - x239  = 0
 c85:  x246 + x249 - x253 + x258 + x259 - x275 + x285 + x286 - x290 - x299  = 1
 c86:  x306 + x309 - x313 + x318 + x319 - x335 + x345 + x346 - x350 - x359  = 0
 c87:  x366 + x369 - x373 + x378 + x379 - x395 + x405 + x406 - x410 - x419  = 0
 c88:  x426 + x429 - x433 + x438 + x439 - x455 + x465 + x466 - x470 - x479  = 0
 c89:  x486 + x489 - x493 + x498 + x499 - x515 + x525 + x526 - x530 - x539  = 1
 c90:  x546 + x549 - x553 + x558 + x559 - x575 + x585 + x586 - x590 - x599  = 0
 c91:  - x7 + x11 - x19 + x21 + x22 + x29 - x40 - x52 - x55 - x56 + x58  = 0
 c92:  - x67 + x71 - x79 + x81 + x82 + x89 - x100 - x112 - x115 - x116 + x118
        = 0
 c93:  - x127 + x131 - x139 + x141 + x142 + x149 - x160 - x172 - x175 - x176
       + x178  = 0
 c94:  - x187 + x191 - x199 + x201 + x202 + x209 - x220 - x232 - x235 - x236
       + x238  = 0
 c95:  - x247 + x251 - x259 + x261 + x262 + x269 - x280 - x292 - x295 - x296
       + x298  = -1
 c96:  - x307 + x311 - x319 + x321 + x322 + x329 - x340 - x352 - x355 - x356
       + x358  = 0
 c97:  - x367 + x371 - x379 + x381 + x382 + x389 - x400 - x412 - x415 - x416
       + x418  = 1
 c98:  - x427 + x431 - x439 + x441 + x442 + x449 - x460 - x472 - x475 - x476
       + x478  = -1
 c99:  - x487 + x491 - x499 + x501 + x502 + x509 - x520 - x532 - x535 - x536
       + x538  = 0
 c100: - x547 + x551 - x559 + x561 + x562 + x569 - x580 - x592 - x595 - x596
       + x598  = -1
 c101: 4 x1 + 4 x61 + 4 x121 + 4 x181 + 4 x241 + 4 x301 + 4 x361 + 4 x421
       + 4 x481 + 4 x541 - 18 x601 <= 0
 c102: 4 x2 + 4 x62 + 4 x122 + 4 x182 + 4 x242 + 4 x302 + 4 x362 + 4 x422
       + 4 x482 + 4 x542 - 19 x602 <= 0
 c103: 4 x3 + 4 x63 + 4 x123 + 4 x183 + 4 x243 + 4 x303 + 4 x363 + 4 x423
       + 4 x483 + 4 x543 - 21 x603 <= 0
 c104: 4 x4 + 4 x64 + 4 x124 + 4 x184 + 4 x244 + 4 x304 + 4 x364 + 4 x424
       + 4 x484 + 4 x544 - 19 x604 <= 0
 c105: 4 x5 + 4 x65 + 4 x125 + 4 x185 + 4 x245 + 4 x305 + 4 x365 + 4 x425
       + 4 x485 + 4 x545 - 19 x605 <= 0
 c106: 4 x6 + 4 x66 + 4 x126 + 4 x186 + 4 x246 + 4 x306 + 4 x366 + 4 x426
       + 4 x486 + 4 x546 - 19 x606 <= 0
 c107: 4 x7 + 4 x67 + 4 x127 + 4 x187 + 4 x247 + 4 x307 + 4 x367 + 4 x427
       + 4 x487 + 4 x547 - 21 x607 <= 0
 c108: 4 x8 + 4 x68 + 4 x128 + 4 x188 + 4 x248 + 4 x308 + 4 x368 + 4 x428
       + 4 x488 + 4 x548 - 21 x608 <= 0
 c109: 4 x9 + 4 x69 + 4 x129 + 4 x189 + 4 x249 + 4 x309 + 4 x369 + 4 x429
       + 4 x489 + 4 x549 - 21 x609 <= 0
 c110: 4 x10 + 4 x70 + 4 x130 + 4 x190 + 4 x250 + 4 x310 + 4 x370 + 4 x430
       + 4 x490 + 4 x550 - 19 x610 <= 0
 c111: 4 x11 + 4 x71 + 4 x131 + 4 x191 + 4 x251 + 4 x311 + 4 x371 + 4 x431
       + 4 x491 + 4 x551 - 18 x611 <= 0
 c112: 4 x12 + 4 x72 + 4 x132 + 4 x192 + 4 x252 + 4 x312 + 4 x372 + 4 x432
       + 4 x492 + 4 x552 - 21 x612 <= 0
 c113: 4 x13 + 4 x73 + 4 x133 + 4 x193 + 4 x253 + 4 x313 + 4 x373 + 4 x433
       + 4 x493 + 4 x553 - 21 x613 <= 0
 c114: 4 x14 + 4 x74 + 4 x134 + 4 x194 + 4 x254 + 4 x314 + 4 x374 + 4 x434
       + 4 x494 + 4 x554 - 20 x614 <= 0
 c115: 4 x15 + 4 x75 + 4 x135 + 4 x195 + 4 x255 + 4 x315 + 4 x375 + 4 x435
       + 4 x495 + 4 x555 - 21 x615 <= 0
 c116: 4 x16 + 4 x76 + 4 x136 + 4 x196 + 4 x256 + 4 x316 + 4 x376 + 4 x436
       + 4 x496 + 4 x556 - 21 x616 <= 0
 c117: 4 x17 + 4 x77 + 4 x137 + 4 x197 + 4 x257 + 4 x317 + 4 x377 + 4 x437
       + 4 x497 + 4 x557 - 22 x617 <= 0
 c118: 4 x18 + 4 x78 + 4 x138 + 4 x198 + 4 x258 + 4 x318 + 4 x378 + 4 x438
       + 4 x498 + 4 x558 - 20 x618 <= 0
 c119: 4 x19 + 4 x79 + 4 x139 + 4 x199 + 4 x259 + 4 x319 + 4 x379 + 4 x439
       + 4 x499 + 4 x559 - 21 x619 <= 0
 c120: 4 x20 + 4 x80 + 4 x140 + 4 x200 + 4 x260 + 4 x320 + 4 x380 + 4 x440
       + 4 x500 + 4 x560 - 18 x620 <= 0
 c121: 4 x21 + 4 x81 + 4 x141 + 4 x201 + 4 x261 + 4 x321 + 4 x381 + 4 x441
       + 4 x501 + 4 x561 - 20 x621 <= 0
 c122: 4 x22 + 4 x82 + 4 x142 + 4 x202 + 4 x262 + 4 x322 + 4 x382 + 4 x442
       + 4 x502 + 4 x562 - 21 x622 <= 0
 c123: 4 x23 + 4 x83 + 4 x143 + 4 x203 + 4 x263 + 4 x323 + 4 x383 + 4 x443
       + 4 x503 + 4 x563 - 21 x623 <= 0
 c124: 4 x24 + 4 x84 + 4 x144 + 4 x204 + 4 x264 + 4 x324 + 4 x384 + 4 x444
       + 4 x504 + 4 x564 - 21 x624 <= 0
 c125: 4 x25 + 4 x85 + 4 x145 + 4 x205 + 4 x265 + 4 x325 + 4 x385 + 4 x445
       + 4 x505 + 4 x565 - 18 x625 <= 0
 c126: 4 x26 + 4 x86 + 4 x146 + 4 x206 + 4 x266 + 4 x326 + 4 x386 + 4 x446
       + 4 x506 + 4 x566 - 21 x626 <= 0
 c127: 4 x27 + 4 x87 + 4 x147 + 4 x207 + 4 x267 + 4 x327 + 4 x387 + 4 x447
       + 4 x507 + 4 x567 - 19 x627 <= 0
 c128: 4 x28 + 4 x88 + 4 x148 + 4 x208 + 4 x268 + 4 x328 + 4 x388 + 4 x448
       + 4 x508 + 4 x568 - 20 x628 <= 0
 c129: 4 x29 + 4 x89 + 4 x149 + 4 x209 + 4 x269 + 4 x329 + 4 x389 + 4 x449
       + 4 x509 + 4 x569 - 18 x629 <= 0
 c130: 4 x30 + 4 x90 + 4 x150 + 4 x210 + 4 x270 + 4 x330 + 4 x390 + 4 x450
       + 4 x510 + 4 x570 - 20 x630 <= 0
 c131: 4 x31 + 4 x91 + 4 x151 + 4 x211 + 4 x271 + 4 x331 + 4 x391 + 4 x451
       + 4 x511 + 4 x571 - 19 x631 <= 0
 c132: 4 x32 + 4 x92 + 4 x152 + 4 x212 + 4 x272 + 4 x332 + 4 x392 + 4 x452
       + 4 x512 + 4 x572 - 20 x632 <= 0
 c133: 4 x33 + 4 x93 + 4 x153 + 4 x213 + 4 x273 + 4 x333 + 4 x393 + 4 x453
       + 4 x513 + 4 x573 - 20 x633 <= 0
 c134: 4 x34 + 4 x94 + 4 x154 + 4 x214 + 4 x274 + 4 x334 + 4 x394 + 4 x454
       + 4 x514 + 4 x574 - 18 x634 <= 0
 c135: 4 x35 + 4 x95 + 4 x155 + 4 x215 + 4 x275 + 4 x335 + 4 x395 + 4 x455
       + 4 x515 + 4 x575 - 20 x635 <= 0
 c136: 4 x36 + 4 x96 + 4 x156 + 4 x216 + 4 x276 + 4 x336 + 4 x396 + 4 x456
       + 4 x516 + 4 x576 - 18 x636 <= 0
 c137: 4 x37 + 4 x97 + 4 x157 + 4 x217 + 4 x277 + 4 x337 + 4 x397 + 4 x457
       + 4 x517 + 4 x577 - 22 x637 <= 0
 c138: 4 x38 + 4 x98 + 4 x158 + 4 x218 + 4 x278 + 4 x338 + 4 x398 + 4 x458
       + 4 x518 + 4 x578 - 19 x638 <= 0
 c139: 4 x39 + 4 x99 + 4 x159 + 4 x219 + 4 x279 + 4 x339 + 4 x399 + 4 x459
       + 4 x519 + 4 x579 - 22 x639 <= 0
 c140: 4 x40 + 4 x100 + 4 x160 + 4 x220 + 4 x280 + 4 x340 + 4 x400 + 4 x460
       + 4 x520 + 4 x580 - 20 x640 <= 0
 c141: 4 x41 + 4 x101 + 4 x161 + 4 x221 + 4 x281 + 4 x341 + 4 x401 + 4 x461
       + 4 x521 + 4 x581 - 22 x641 <= 0
 c142: 4 x42 + 4 x102 + 4 x162 + 4 x222 + 4 x282 + 4 x342 + 4 x402 + 4 x462
       + 4 x522 + 4 x582 - 20 x642 <= 0
 c143: 4 x43 + 4 x103 + 4 x163 + 4 x223 + 4 x283 + 4 x343 + 4 x403 + 4 x463
       + 4 x523 + 4 x583 - 19 x643 <= 0
 c144: 4 x44 + 4 x104 + 4 x164 + 4 x224 + 4 x284 + 4 x344 + 4 x404 + 4 x464
       + 4 x524 + 4 x584 - 20 x644 <= 0
 c145: 4 x45 + 4 x105 + 4 x165 + 4 x225 + 4 x285 + 4 x345 + 4 x405 + 4 x465
       + 4 x525 + 4 x585 - 20 x645 <= 0
 c146: 4 x46 + 4 x106 + 4 x166 + 4 x226 + 4 x286 + 4 x346 + 4 x406 + 4 x466
       + 4 x526 + 4 x586 - 21 x646 <= 0
 c147: 4 x47 + 4 x107 + 4 x167 + 4 x227 + 4 x287 + 4 x347 + 4 x407 + 4 x467
       + 4 x527 + 4 x587 - 20 x647 <= 0
 c148: 4 x48 + 4 x108 + 4 x168 + 4 x228 + 4 x288 + 4 x348 + 4 x408 + 4 x468
       + 4 x528 + 4 x588 - 18 x648 <= 0
 c149: 4 x49 + 4 x109 + 4 x169 + 4 x229 + 4 x289 + 4 x349 + 4 x409 + 4 x469
       + 4 x529 + 4 x589 - 20 x649 <= 0
 c150: 4 x50 + 4 x110 + 4 x170 + 4 x230 + 4 x290 + 4 x350 + 4 x410 + 4 x470
       + 4 x530 + 4 x590 - 21 x650 <= 0
 c151: 4 x51 + 4 x111 + 4 x171 + 4 x231 + 4 x291 + 4 x351 + 4 x411 + 4 x471
       + 4 x531 + 4 x591 - 21 x651 <= 0
 c152: 4 x52 + 4 x112 + 4 x172 + 4 x232 + 4 x292 + 4 x352 + 4 x412 + 4 x472
       + 4 x532 + 4 x592 - 19 x652 <= 0
 c153: 4 x53 + 4 x113 + 4 x173 + 4 x233 + 4 x293 + 4 x353 + 4 x413 + 4 x473
       + 4 x533 + 4 x593 - 21 x653 <= 0
 c154: 4 x54 + 4 x114 + 4 x174 + 4 x234 + 4 x294 + 4 x354 + 4 x414 + 4 x474
       + 4 x534 + 4 x594 - 19 x654 <= 0
 c155: 4 x55 + 4 x115 + 4 x175 + 4 x235 + 4 x295 + 4 x355 + 4 x415 + 4 x475
       + 4 x535 + 4 x595 - 20 x655 <= 0
 c156: 4 x56 + 4 x116 + 4 x176 + 4 x236 + 4 x296 + 4 x356 + 4 x416 + 4 x476
       + 4 x536 + 4 x596 - 20 x656 <= 0
 c157: 4 x57 + 4 x117 + 4 x177 + 4 x237 + 4 x297 + 4 x357 + 4 x417 + 4 x477
       + 4 x537 + 4 x597 - 22 x657 <= 0
 c158: 4 x58 + 4 x118 + 4 x178 + 4 x238 + 4 x298 + 4 x358 + 4 x418 + 4 x478
       + 4 x538 + 4 x598 - 18 x658 <= 0
 c159: 4 x59 + 4 x119 + 4 x179 + 4 x239 + 4 x299 + 4 x359 + 4 x419 + 4 x479
       + 4 x539 + 4 x599 - 20 x659 <= 0
 c160: 4 x60 + 4 x120 + 4 x180 + 4 x240 + 4 x300 + 4 x360 + 4 x420 + 4 x480
       + 4 x540 + 4 x600 - 22 x660 <= 0
Bounds
 0 <= x1 <= 1
 0 <= x2 <= 1
 0 <= x3 <= 1
 0 <= x4 <= 1
 0 <= x5 <= 1
 0 <= x6 <= 1
 0 <= x7 <= 1
 0 <= x8 <= 1
 0 <= x9 <= 1
 0 <= x10 <= 1
 0 <= x11 <= 1
 0 <= x12 <= 1
 0 <= x13 <= 1
 0 <= x14 <= 1
 0 <= x15 <= 1
 0 <= x16 <= 1
 0 <= x17 <= 1
 0 <= x18 <= 1
 0 <= x19 <= 1
 0 <= x20 <= 1
 0 <= x21 <= 1
 0 <= x22 <= 1
 0 <= x23 <= 1
 0 <= x24 <= 1
 0 <= x25 <= 1
 0 <= x26 <= 1
 0 <= x27 <= 1
 0 <= x28 <= 1
 0 <= x29 <= 1
 0 <= x30 <= 1
 0 <= x31 <= 1
 0 <= x32 <= 1
 0 <= x33 <= 1
 0 <= x34 <= 1
 0 <= x35 <= 1
 0 <= x36 <= 1
 0 <= x37 <= 1
 0 <= x38 <= 1
 0 <= x39 <= 1
 0 <= x40 <= 1
 0 <= x41 <= 1
 0 <= x42 <= 1
 0 <= x43 <= 1
 0 <= x44 <= 1
 0 <= x45 <= 1
 0 <= x46 <= 1
 0 <= x47 <= 1
 0 <= x48 <= 1
 0 <= x49 <= 1
 0 <= x50 <= 1
 0 <= x51 <= 1
 0 <= x52 <= 1
 0 <= x53 <= 1
 0 <= x54 <= 1
 0 <= x55 <= 1
 0 <= x56 <= 1
 0 <= x57 <= 1
 0 <= x58 <= 1
 0 <= x59 <= 1
 0 <= x60 <= 1
 0 <= x61 <= 1
 0 <= x62 <= 1
 0 <= x63 <= 1
 0 <= x64 <= 1
 0 <= x65 <= 1
 0 <= x66 <= 1
 0 <= x67 <= 1
 0 <= x68 <= 1
 0 <= x69 <= 1
 0 <= x70 <= 1
 0 <= x71 <= 1
 0 <= x72 <= 1
 0 <= x73 <= 1
 0 <= x74 <= 1
 0 <= x75 <= 1
 0 <= x76 <= 1
 0 <= x77 <= 1
 0 <= x78 <= 1
 0 <= x79 <= 1
 0 <= x80 <= 1
 0 <= x81 <= 1
 0 <= x82 <= 1
 0 <= x83 <= 1
 0 <= x84 <= 1
 0 <= x85 <= 1
 0 <= x86 <= 1
 0 <= x87 <= 1
 0 <= x88 <= 1
 0 <= x89 <= 1
 0 <= x90 <= 1
 0 <= x91 <= 1
 0 <= x92 <= 1
 0 <= x93 <= 1
 0 <= x94 <= 1
 0 <= x95 <= 1
 0 <= x96 <= 1
 0 <= x97 <= 1
 0 <= x98 <= 1
 0 <= x99 <= 1
 0 <= x100 <= 1
 0 <= x101 <= 1
 0 <= x102 <= 1
 0 <= x103 <= 1
 0 <= x104 <= 1
 0 <= x105 <= 1
 0 <= x106 <= 1
 0 <= x107 <= 1
 0 <= x108 <= 1
 0 <= x109 <= 1
 0 <= x110 <= 1
 0 <= x111 <= 1
 0 <= x112 <= 1
 0 <= x113 <= 1
 0 <= x114 <= 1
 0 <= x115 <= 1
 0 <= x116 <= 1
 0 <= x117 <= 1
 0 <= x118 <= 1
 0 <= x119 <= 1
 0 <= x120 <= 1
 0 <= x121 <= 1
 0 <= x122 <= 1
 0 <= x123 <= 1
 0 <= x124 <= 1
 0 <= x125 <= 1
 0 <= x126 <= 1
 0 <= x127 <= 1
 0 <= x128 <= 1
 0 <= x129 <= 1
 0 <= x130 <= 1
 0 <= x131 <= 1
 0 <= x132 <= 1
 0 <= x133 <= 1
 0 <= x134 <= 1
 0 <= x135 <= 1
 0 <= x136 <= 1
 0 <= x137 <= 1
 0 <= x138 <= 1
 0 <= x139 <= 1
 0 <= x140 <= 1
 0 <= x141 <= 1
 0 <= x142 <= 1
 0 <= x143 <= 1
 0 <= x144 <= 1
 0 <= x145 <= 1
 0 <= x146 <= 1
 0 <= x147 <= 1
 0 <= x148 <= 1
 0 <= x149 <= 1
 0 <= x150 <= 1
 0 <= x151 <= 1
 0 <= x152 <= 1
 0 <= x153 <= 1
 0 <= x154 <= 1
 0 <= x155 <= 1
 0 <= x156 <= 1
 0 <= x157 <= 1
 0 <= x158 <= 1
 0 <= x159 <= 1
 0 <= x160 <= 1
 0 <= x161 <= 1
 0 <= x162 <= 1
 0 <= x163 <= 1
 0 <= x164 <= 1
 0 <= x165 <= 1
 0 <= x166 <= 1
 0 <= x167 <= 1
 0 <= x168 <= 1
 0 <= x169 <= 1
 0 <= x170 <= 1
 0 <= x171 <= 1
 0 <= x172 <= 1
 0 <= x173 <= 1
 0 <= x174 <= 1
 0 <= x175 <= 1
 0 <= x176 <= 1
 0 <= x177 <= 1
 0 <= x178 <= 1
 0 <= x179 <= 1
 0 <= x180 <= 1
 0 <= x181 <= 1
 0 <= x182 <= 1
 0 <= x183 <= 1
 0 <= x184 <= 1
 0 <= x185 <= 1
 0 <= x186 <= 1
 0 <= x187 <= 1
 0 <= x188 <= 1
 0 <= x189 <= 1
 0 <= x190 <= 1
 0 <= x191 <= 1
 0 <= x192 <= 1
 0 <= x193 <= 1
 0 <= x194 <= 1
 0 <= x195 <= 1
 0 <= x196 <= 1
 0 <= x197 <= 1
 0 <= x198 <= 1
 0 <= x199 <= 1
 0 <= x200 <= 1
 0 <= x201 <= 1
 0 <= x202 <= 1
 0 <= x203 <= 1
 0 <= x204 <= 1
 0 <= x205 <= 1
 0 <= x206 <= 1
 0 <= x207 <= 1
 0 <= x208 <= 1
 0 <= x209 <= 1
 0 <= x210 <= 1
 0 <= x211 <= 1
 0 <= x212 <= 1
 0 <= x213 <= 1
 0 <= x214 <= 1
 0 <= x215 <= 1
 0 <= x216 <= 1
 0 <= x217 <= 1
 0 <= x218 <= 1
 0 <= x219 <= 1
 0 <= x220 <= 1
 0 <= x221 <= 1
 0 <= x222 <= 1
 0 <= x223 <= 1
 0 <= x224 <= 1
 0 <= x225 <= 1
 0 <= x226 <= 1
 0 <= x227 <= 1
 0 <= x228 <= 1
 0 <= x229 <= 1
 0 <= x230 <= 1
 0 <= x231 <= 1
 0 <= x232 <= 1
 0 <= x233 <= 1
 0 <= x234 <= 1
 0 <= x235 <= 1
 0 <= x236 <= 1
 0 <= x237 <= 1
 0 <= x238 <= 1
 0 <= x239 <= 1
 0 <= x240 <= 1
 0 <= x241 <= 1
 0 <= x242 <= 1
 0 <= x243 <= 1
 0 <= x244 <= 1
 0 <= x245 <= 1
 0 <= x246 <= 1
 0 <= x247 <= 1
 0 <= x248 <= 1
 0 <= x249 <= 1
 0 <= x250 <= 1
 0 <= x251 <= 1
 0 <= x252 <= 1
 0 <= x253 <= 1
 0 <= x254 <= 1
 0 <= x255 <= 1
 0 <= x256 <= 1
 0 <= x257 <= 1
 0 <= x258 <= 1
 0 <= x259 <= 1
 0 <= x260 <= 1
 0 <= x261 <= 1
 0 <= x262 <= 1
 0 <= x263 <= 1
 0 <= x264 <= 1
 0 <= x265 <= 1
 0 <= x266 <= 1
 0 <= x267 <= 1
 0 <= x268 <= 1
 0 <= x269 <= 1
 0 <= x270 <= 1
 0 <= x271 <= 1
 0 <= x272 <= 1
 0 <= x273 <= 1
 0 <= x274 <= 1
 0 <= x275 <= 1
 0 <= x276 <= 1
 0 <= x277 <= 1
 0 <= x278 <= 1
 0 <= x279 <= 1
 0 <= x280 <= 1
 0 <= x281 <= 1
 0 <= x282 <= 1
 0 <= x283 <= 1
 0 <= x284 <= 1
 0 <= x285 <= 1
 0 <= x286 <= 1
 0 <= x287 <= 1
 0 <= x288 <= 1
 0 <= x289 <= 1
 0 <= x290 <= 1
 0 <= x291 <= 1
 0 <= x292 <= 1
 0 <= x293 <= 1
 0 <= x294 <= 1
 0 <= x295 <= 1
 0 <= x296 <= 1
 0 <= x297 <= 1
 0 <= x298 <= 1
 0 <= x299 <= 1
 0 <= x300 <= 1
 0 <= x301 <= 1
 0 <= x302 <= 1
 0 <= x303 <= 1
 0 <= x304 <= 1
 0 <= x305 <= 1
 0 <= x306 <= 1
 0 <= x307 <= 1
 0 <= x308 <= 1
 0 <= x309 <= 1
 0 <= x310 <= 1
 0 <= x311 <= 1
 0 <= x312 <= 1
 0 <= x313 <= 1
 0 <= x314 <= 1
 0 <= x315 <= 1
 0 <= x316 <= 1
 0 <= x317 <= 1
 0 <= x318 <= 1
 0 <= x319 <= 1
 0 <= x320 <= 1
 0 <= x321 <= 1
 0 <= x322 <= 1
 0 <= x323 <= 1
 0 <= x324 <= 1
 0 <= x325 <= 1
 0 <= x326 <= 1
 0 <= x327 <= 1
 0 <= x328 <= 1
 0 <= x329 <= 1
 0 <= x330 <= 1
 0 <= x331 <= 1
 0 <= x332 <= 1
 0 <= x333 <= 1
 0 <= x334 <= 1
 0 <= x335 <= 1
 0 <= x336 <= 1
 0 <= x337 <= 1
 0 <= x338 <= 1
 0 <= x339 <= 1
 0 <= x340 <= 1
 0 <= x341 <= 1
 0 <= x342 <= 1
 0 <= x343 <= 1
 0 <= x344 <= 1
 0 <= x345 <= 1
 0 <= x346 <= 1
 0 <= x347 <= 1
 0 <= x348 <= 1
 0 <= x349 <= 1
 0 <= x350 <= 1
 0 <= x351 <= 1
 0 <= x352 <= 1
 0 <= x353 <= 1
 0 <= x354 <= 1
 0 <= x355 <= 1
 0 <= x356 <= 1
 0 <= x357 <= 1
 0 <= x358 <= 1
 0 <= x359 <= 1
 0 <= x360 <= 1
 0 <= x361 <= 1
 0 <= x362 <= 1
 0 <= x363 <= 1
 0 <= x364 <= 1
 0 <= x365 <= 1
 0 <= x366 <= 1
 0 <= x367 <= 1
 0 <= x368 <= 1
 0 <= x369 <= 1
 0 <= x370 <= 1
 0 <= x371 <= 1
 0 <= x372 <= 1
 0 <= x373 <= 1
 0 <= x374 <= 1
 0 <= x375 <= 1
 0 <= x376 <= 1
 0 <= x377 <= 1
 0 <= x378 <= 1
 0 <= x379 <= 1
 0 <= x380 <= 1
 0 <= x381 <= 1
 0 <= x382 <= 1
 0 <= x383 <= 1
 0 <= x384 <= 1
 0 <= x385 <= 1
 0 <= x386 <= 1
 0 <= x387 <= 1
 0 <= x388 <= 1
 0 <= x389 <= 1
 0 <= x390 <= 1
 0 <= x391 <= 1
 0 <= x392 <= 1
 0 <= x393 <= 1
 0 <= x394 <= 1
 0 <= x395 <= 1
 0 <= x396 <= 1
 0 <= x397 <= 1
 0 <= x398 <= 1
 0 <= x399 <= 1
 0 <= x400 <= 1
 0 <= x401 <= 1
 0 <= x402 <= 1
 0 <= x403 <= 1
 0 <= x404 <= 1
 0 <= x405 <= 1
 0 <= x406 <= 1
 0 <= x407 <= 1
 0 <= x408 <= 1
 0 <= x409 <= 1
 0 <= x410 <= 1
 0 <= x411 <= 1
 0 <= x412 <= 1
 0 <= x413 <= 1
 0 <= x414 <= 1
 0 <= x415 <= 1
 0 <= x416 <= 1
 0 <= x417 <= 1
 0 <= x418 <= 1
 0 <= x419 <= 1
 0 <= x420 <= 1
 0 <= x421 <= 1
 0 <= x422 <= 1
 0 <= x423 <= 1
 0 <= x424 <= 1
 0 <= x425 <= 1
 0 <= x426 <= 1
 0 <= x427 <= 1
 0 <= x428 <= 1
 0 <= x429 <= 1
 0 <= x430 <= 1
 0 <= x431 <= 1
 0 <= x432 <= 1
 0 <= x433 <= 1
 0 <= x434 <= 1
 0 <= x435 <= 1
 0 <= x436 <= 1
 0 <= x437 <= 1
 0 <= x438 <= 1
 0 <= x439 <= 1
 0 <= x440 <= 1
 0 <= x441 <= 1
 0 <= x442 <= 1
 0 <= x443 <= 1
 0 <= x444 <= 1
 0 <= x445 <= 1
 0 <= x446 <= 1
 0 <= x447 <= 1
 0 <= x448 <= 1
 0 <= x449 <= 1
 0 <= x450 <= 1
 0 <= x451 <= 1
 0 <= x452 <= 1
 0 <= x453 <= 1
 0 <= x454 <= 1
 0 <= x455 <= 1
 0 <= x456 <= 1
 0 <= x457 <= 1
 0 <= x458 <= 1
 0 <= x459 <= 1
 0 <= x460 <= 1
 0 <= x461 <= 1
 0 <= x462 <= 1
 0 <= x463 <= 1
 0 <= x464 <= 1
 0 <= x465 <= 1
 0 <= x466 <= 1
 0 <= x467 <= 1
 0 <= x468 <= 1
 0 <= x469 <= 1
 0 <= x470 <= 1
 0 <= x471 <= 1
 0 <= x472 <= 1
 0 <= x473 <= 1
 0 <= x474 <= 1
 0 <= x475 <= 1
 0 <= x476 <= 1
 0 <= x477 <= 1
 0 <= x478 <= 1
 0 <= x479 <= 1
 0 <= x480 <= 1
 0 <= x481 <= 1
 0 <= x482 <= 1
 0 <= x483 <= 1
 0 <= x484 <= 1
 0 <= x485 <= 1
 0 <= x486 <= 1
 0 <= x487 <= 1
 0 <= x488 <= 1
 0 <= x489 <= 1
 0 <= x490 <= 1
 0 <= x491 <= 1
 0 <= x492 <= 1
 0 <= x493 <= 1
 0 <= x494 <= 1
 0 <= x495 <= 1
 0 <= x496 <= 1
 0 <= x497 <= 1
 0 <= x498 <= 1
 0 <= x499 <= 1
 0 <= x500 <= 1
 0 <= x501 <= 1
 0 <= x502 <= 1
 0 <= x503 <= 1
 0 <= x504 <= 1
 0 <= x505 <= 1
 0 <= x506 <= 1
 0 <= x507 <= 1
 0 <= x508 <= 1
 0 <= x509 <= 1
 0 <= x510 <= 1
 0 <= x511 <= 1
 0 <= x512 <= 1
 0 <= x513 <= 1
 0 <= x514 <= 1
 0 <= x515 <= 1
 0 <= x516 <= 1
 0 <= x517 <= 1
 0 <= x518 <= 1
 0 <= x519 <= 1
 0 <= x520 <= 1
 0 <= x521 <= 1
 0 <= x522 <= 1
 0 <= x523 <= 1
 0 <= x524 <= 1
 0 <= x525 <= 1
 0 <= x526 <= 1
 0 <= x527 <= 1
 0 <= x528 <= 1
 0 <= x529 <= 1
 0 <= x530 <= 1
 0 <= x531 <= 1
 0 <= x532 <= 1
 0 <= x533 <= 1
 0 <= x534 <= 1
 0 <= x535 <= 1
 0 <= x536 <= 1
 0 <= x537 <= 1
 0 <= x538 <= 1
 0 <= x539 <= 1
 0 <= x540 <= 1
 0 <= x541 <= 1
 0 <= x542 <= 1
 0 <= x543 <= 1
 0 <= x544 <= 1
 0 <= x545 <= 1
 0 <= x546 <= 1
 0 <= x547 <= 1
 0 <= x548 <= 1
 0 <= x549 <= 1
 0 <= x550 <= 1
 0 <= x551 <= 1
 0 <= x552 <= 1
 0 <= x553 <= 1
 0 <= x554 <= 1
 0 <= x555 <= 1
 0 <= x556 <= 1
 0 <= x557 <= 1
 0 <= x558 <= 1
 0 <= x559 <= 1
 0 <= x560 <= 1
 0 <= x561 <= 1
 0 <= x562 <= 1
 0 <= x563 <= 1
 0 <= x564 <= 1
 0 <= x565 <= 1
 0 <= x566 <= 1
 0 <= x567 <= 1
 0 <= x568 <= 1
 0 <= x569 <= 1
 0 <= x570 <= 1
 0 <= x571 <= 1
 0 <= x572 <= 1
 0 <= x573 <= 1
 0 <= x574 <= 1
 0 <= x575 <= 1
 0 <= x576 <= 1
 0 <= x577 <= 1
 0 <= x578 <= 1
 0 <= x579 <= 1
 0 <= x580 <= 1
 0 <= x581 <= 1
 0 <= x582 <= 1
 0 <= x583 <= 1
 0 <= x584 <= 1
 0 <= x585 <= 1
 0 <= x586 <= 1
 0 <= x587 <= 1
 0 <= x588 <= 1
 0 <= x589 <= 1
 0 <= x590 <= 1
 0 <= x591 <= 1
 0 <= x592 <= 1
 0 <= x593 <= 1
 0 <= x594 <= 1
 0 <= x595 <= 1
 0 <= x596 <= 1
 0 <= x597 <= 1
 0 <= x598 <= 1
 0 <= x599 <= 1
 0 <= x600 <= 1
 0 <= x601 <= 1
 0 <= x602 <= 1
 0 <= x603 <= 1
 0 <= x604 <= 1
 0 <= x605 <= 1
 0 <= x606 <= 1
 0 <= x607 <= 1
 0 <= x608 <= 1
 0 <= x609 <= 1
 0 <= x610 <= 1
 0 <= x611 <= 1
 0 <= x612 <= 1
 0 <= x613 <= 1
 0 <= x614 <= 1
 0 <= x615 <= 1
 0 <= x616 <= 1
 0 <= x617 <= 1
 0 <= x618 <= 1
 0 <= x619 <= 1
 0 <= x620 <= 1
 0 <= x621 <= 1
 0 <= x622 <= 1
 0 <= x623 <= 1
 0 <= x624 <= 1
 0 <= x625 <= 1
 0 <= x626 <= 1
 0 <= x627 <= 1
 0 <= x628 <= 1
 0 <= x629 <= 1
 0 <= x630 <= 1
 0 <= x631 <= 1
 0 <= x632 <= 1
 0 <= x633 <= 1
 0 <= x634 <= 1
 0 <= x635 <= 1
 0 <= x636 <= 1
 0 <= x637 <= 1
 0 <= x638 <= 1
 0 <= x639 <= 1
 0 <= x640 <= 1
 0 <= x641 <= 1
 0 <= x642 <= 1
 0 <= x643 <= 1
 0 <= x644 <= 1
 0 <= x645 <= 1
 0 <= x646 <= 1
 0 <= x647 <= 1
 0 <= x648 <= 1
 0 <= x649 <= 1
 0 <= x650 <= 1
 0 <= x651 <= 1
 0 <= x652 <= 1
 0 <= x653 <= 1
 0 <= x654 <= 1
 0 <= x655 <= 1
 0 <= x656 <= 1
 0 <= x657 <= 1
 0 <= x658 <= 1
 0 <= x659 <= 1
 0 <= x660 <= 1
Binaries
 x601  x602  x603  x604  x605  x606  x607  x608  x609  x610  x611  x612  x613 
 x614  x615  x616  x617  x618  x619  x620  x621  x622  x623  x624  x625  x626 
 x627  x628  x629  x630  x631  x632  x633  x634  x635  x636  x637  x638  x639 
 x640  x641  x642  x643  x644  x645  x646  x647  x648  x649  x650  x651  x652 
 x653  x654  x655  x656  x657  x658  x659  x660 
End
